1
3
10
11
11
11
11
12
12
12
12
12
13
18
18
20
22
22
22
23
28
29
31
31
33
90
91
91
91
93
93
101
101
101
102
103
108
110
110
110
110
111
111
111
111
111
111
111
111
111
112
112
112
112
112
112
112
112
112
113
113
113
113
113
118
118
118
118
118
119
119
120
120
120
121
121
121
121
121
121
122
122
122
122
122
122
123
123
128
128
128
128
129
129
129
130
131
131
131
131
132
132
180
181
181
181
182
182
182
183
189
190
191
191
191
191
191
191
192
201
208
211
211
211
211
211
211
211
211
211
211
211
211
212
218
218
218
219
220
221
223
228
231
239
280
281
282
282
283
283
291
292
293
298
302
311
311
311
311
311
311
311
311
311
312
312
312
312
318
318
318
321
321
321
328
328
381
381
382
388
392
801
803
810
811
811
811
811
812
812
813
820
821
821
822
829
832
891
892
902
911
911
911
911
911
911
911
912
912
912
912
912
912
913
913
913
918
918
918
918
918
920
921
922
923
930
982
988
1011
1011
1012
1012
1012
1013
1013
1018
1018
1019
1021
1021
1021
1021
1022
1023
1023
1029
1029
1031
1031
1032
1032
1039
1081
1081
1082
1083
1091
1091
1092
1093
1093
1098
1101
1101
1101
1102
1102
1102
1102
1102
1103
1108
1108
1109
1109
1110
1110
1110
1110
1110
1110
1110
1110
1110
1110
1111
1111
1112
1112
1112
1113
1113
1113
1113
1118
1118
1118
1118
1119
1119
1119
1119
1120
1120
1120
1120
1121
1121
1121
1121
1122
1123
1123
1123
1123
1123
1123
1123
1128
1128
1128
1129
1129
1129
1129
1129
1130
1130
1131
1131
1131
1131
1132
1132
1132
1132
1139
1139
1139
1139
1139
1180
1180
1181
1181
1181
1181
1182
1182
1182
1182
1183
1183
1189
1189
1190
1190
1191
1191
1191
1191
1191
1192
1192
1192
1193
1193
1193
1193
1198
1201
1201
1201
1202
1203
1208
1209
1210
1210
1210
1210
1210
1210
1211
1211
1211
1211
1211
1212
1212
1212
1212
1212
1213
1213
1213
1213
1213
1213
1213
1213
1218
1218
1218
1219
1219
1219
1220
1220
1221
1221
1221
1221
1221
1228
1229
1230
1230
1230
1231
1231
1231
1231
1231
1231
1231
1232
1238
1238
1239
1281
1281
1282
1289
1289
1291
1291
1291
1291
1291
1292
1292
1293
1293
1293
1298
1298
1302
1302
1302
1308
1310
1310
1311
1311
1311
1311
1312
1312
1312
1318
1318
1320
1321
1322
1329
1380
1381
1381
1382
1382
1389
1391
1392
1398
1801
1803
1809
1810
1810
1811
1811
1811
1812
1812
1812
1812
1812
1812
1812
1813
1813
1813
1813
1813
1819
1819
1821
1822
1822
1822
1822
1822
1823
1823
1829
1829
1829
1830
1830
1830
1831
1832
1839
1891
1901
1910
1911
1911
1911
1911
1911
1911
1911
1912
1912
1912
1912
1912
1913
1913
1913
1918
1918
1918
1921
1923
1923
1923
1923
1928
1928
1928
1931
1932
1932
1938
1981
1981
1981
1982
2011
2011
2011
2012
2012
2012
2013
2013
2019
2021
2021
2031
2031
2081
2081
2082
2089
2091
2091
2093
2101
2101
2101
2101
2101
2103
2109
2110
2110
2110
2110
2110
2111
2111
2111
2112
2112
2112
2113
2113
2113
2113
2118
2118
2119
2119
2120
2120
2121
2121
2121
2121
2121
2121
2121
2123
2128
2128
2130
2130
2131
2131
2132
2138
2138
2139
2180
2181
2181
2181
2181
2182
2182
2182
2183
2183
2189
2191
2191
2191
2191
2191
2193
2198
2209
2211
2211
2211
2211
2211
2213
2213
2213
2219
2231
2239
2281
2289
2298
2310
2310
2311
2311
2311
2311
2311
2318
2318
2318
2319
2319
2319
2321
2328
2329
2380
2380
2381
2381
2389
2391
2391
2801
2809
2811
2811
2811
2813
2813
2813
2813
2821
2831
2831
2831
2831
2831
2903
2910
2910
2911
2911
2911
2911
2911
2913
2918
2920
2921
2931
2931
2931
2932
2938
2981
2981
2981
3011
3011
3012
3018
3019
3021
3082
3089
3101
3101
3101
3102
3108
3110
3111
3111
3111
3111
3111
3111
3111
3112
3112
3112
3112
3118
3119
3119
3119
3119
3120
3120
3121
3121
3121
3121
3121
3121
3122
3122
3128
3129
3129
3180
3181
3181
3182
3182
3190
3191
3191
3191
3192
3192
3198
3201
3201
3201
3210
3210
3210
3211
3211
3211
3212
3212
3218
3218
3219
3219
3228
3280
3281
3292
3298
3810
3811
3821
3829
3901
3902
3910
3911
3911
3912
3918
3921
3922
3981
3981
8011
8011
8011
8012
8012
8012
8013
8013
8013
8022
8031
8032
8101
8101
8101
8101
8101
8103
8103
8109
8109
8110
8110
8111
8111
8111
8112
8112
8112
8112
8112
8112
8112
8112
8112
8113
8120
8121
8121
8121
8121
8121
8121
8121
8121
8121
8123
8130
8131
8131
8132
8132
8132
8139
8190
8191
8191
8191
8192
8192
8201
8210
8211
8211
8211
8211
8211
8211
8212
8219
8219
8219
8219
8219
8221
8221
8231
8239
8290
8291
8291
8291
8302
8310
8319
8319
8321
8329
8901
8911
8911
8911
8912
8913
8913
8913
8920
8921
8921
8931
8931
8932
9011
9011
9018
9021
9022
9031
9031
9032
9038
9081
9081
9101
9101
9101
9101
9101
9110
9110
9110
9111
9111
9111
9111
9112
9112
9113
9113
9118
9118
9120
9120
9120
9121
9121
9121
9121
9121
9121
9123
9123
9123
9128
9128
9130
9131
9131
9131
9132
9132
9132
9132
9138
9138
9180
9182
9182
9201
9202
9202
9203
9208
9210
9211
9211
9211
9213
9213
9221
9231
9232
9232
9238
9280
9281
9281
9281
9282
9283
9283
9301
9301
9302
9310
9310
9312
9318
9321
9321
9321
9381
9801
9802
9811
9812
9812
9821
9822
9823
9831
9831
